NAME : tsp225
COMMENT : A TSP problem (Reinelt)
TYPE : TSP
DIMENSION : 15
EDGE_WEIGHT_TYPE : EUC_2D
NODE_COORD_SECTION
  1 155.42 150.65
  2 375.92 164.65
  3 183.92 150.65
  4 205.42 150.65
  5 205.42 171.65
  6 226.42 171.65
  7 226.42 186.15
  8 226.42 207.15
  9 226.42 235.65
 10 226.42 264.15
 11 226.42 292.65
 12 226.42 314.15
 13 226.42 335.65
 14 205.42 335.65
 15 190.92 335.65
EOF
